p cnf 49 142
a 3 47 0
e 1 2 4 5 6 7 8 9 10 11 12 13 14 15 16 17 18 19 20 21 22 23 24 25 26 27 28 29 30 31 32 33 34 35 36 37 38 39 40 41 42 43 44 45 46 48 49 0
-5 3 0
-5 -4 0
-3 4 5 0
-6 -5 0
-6 -3 0
5 3 6 0
6 -1 -7 0
-6 1 -7 0
6 1 7 0
-6 -1 7 0
-8 -2 0
-8 7 0
2 -7 8 0
9 1 0
9 -8 0
-1 8 -9 0
-10 -9 0
-10 1 0
9 -1 10 0
-12 13 -14 0
12 -13 -14 0
-12 -13 14 0
12 13 14 0
-11 14 -15 0
11 -14 -15 0
-11 -14 15 0
11 14 15 0
-16 1 0
-16 -5 0
-1 5 16 0
17 8 0
17 16 0
-8 -16 -17 0
-18 -8 0
-18 17 0
8 -17 18 0
13 -19 -20 0
-13 19 -20 0
13 19 20 0
-13 -19 20 0
-21 20 0
-21 6 0
-20 -6 21 0
-22 -18 0
-22 21 0
18 -21 22 0
15 -22 -23 0
-15 22 -23 0
15 22 23 0
-15 -22 23 0
24 -10 0
24 23 0
10 -23 -24 0
-26 -3 0
-26 -25 0
3 25 26 0
-28 26 0
-28 -27 0
-26 27 28 0
29 28 0
29 -1 0
-28 1 -29 0
-30 -24 0
-30 -29 0
24 29 30 0
31 4 0
31 20 0
-4 -20 -31 0
-5 -16 -32 0
5 16 -32 0
-5 16 32 0
5 -16 32 0
33 2 0
33 -19 0
-2 19 -33 0
34 -16 0
34 -12 0
16 12 -34 0
-35 -33 0
-35 -34 0
33 34 35 0
-36 -4 0
-36 -6 0
4 6 36 0
-36 37 0
36 37 0
-38 35 0
-38 -37 0
-35 37 38 0
-13 -5 -39 0
13 5 -39 0
-13 5 39 0
13 -5 39 0
-38 39 -40 0
38 -39 -40 0
-38 -39 40 0
38 39 40 0
32 40 -41 0
-32 -40 -41 0
32 -40 41 0
-32 40 41 0
-42 -31 0
-42 -41 0
31 41 42 0
-2 -3 -43 0
2 3 -43 0
-2 3 43 0
2 -3 43 0
-42 -43 -44 0
42 43 -44 0
-42 43 44 0
42 -43 44 0
20 -33 -45 0
-20 33 -45 0
20 33 45 0
-20 -33 45 0
-46 14 0
-46 -20 0
-14 20 46 0
47 45 0
47 46 0
-45 -46 -47 0
-48 44 0
-48 -47 0
-44 47 48 0
-49 -30 0
-49 -48 0
30 48 49 0
44 -35 -1 4 20 29 33 0
34 22 49 -27 32 0
-16 36 -49 0
6 -34 9 18 49 27 44 0
11 -45 4 0
43 -39 -25 -2 1 3 0
-30 40 11 49 22 5 10 0
-38 -49 0
-31 14 -23 27 -40 15 -41 0
29 -33 0
25 10 -2 0
-1 8 25 20 0
32 -8 -16 0
49 0
